p cnf 386 460
-16 -20 1 21 22 0
-16 -20 1 21 -22 0
-16 -20 1 -21 23 0
-16 -20 1 -21 -23 0
9 -20 -15 24 25 0
9 -20 -15 24 -25 0
9 -20 -15 -24 26 0
9 -20 -15 -24 -26 0
17 -18 -10 27 28 0
17 -18 -10 27 -28 0
17 -18 -10 -27 29 0
17 -18 -10 -27 -29 0
-10 -14 -6 30 31 0
-10 -14 -6 30 -31 0
-10 -14 -6 -30 32 0
-10 -14 -6 -30 -32 0
-6 -20 13 33 34 0
-6 -20 13 33 -34 0
-6 -20 13 -33 35 0
-6 -20 13 -33 -35 0
-11 -12 -7 36 37 0
-11 -12 -7 36 -37 0
-11 -12 -7 -36 38 0
-11 -12 -7 -36 -38 0
17 19 12 39 40 0
17 19 12 39 -40 0
17 19 12 -39 41 0
17 19 12 -39 -41 0
2 -8 -20 42 43 0
2 -8 -20 42 -43 0
2 -8 -20 -42 44 0
2 -8 -20 -42 -44 0
16 13 -4 45 46 0
16 13 -4 45 -46 0
16 13 -4 -45 47 0
16 13 -4 -45 -47 0
14 9 -8 48 49 0
14 9 -8 48 -49 0
14 9 -8 -48 50 0
14 9 -8 -48 -50 0
16 -1 8 51 52 0
16 -1 8 51 -52 0
16 -1 8 -51 53 0
16 -1 8 -51 -53 0
4 15 16 54 55 0
4 15 16 54 -55 0
4 15 16 -54 56 0
4 15 16 -54 -56 0
-10 -13 5 57 58 0
-10 -13 5 57 -58 0
-10 -13 5 -57 59 0
-10 -13 5 -57 -59 0
-11 -4 6 60 61 0
-11 -4 6 60 -61 0
-11 -4 6 -60 62 0
-11 -4 6 -60 -62 0
-13 1 10 63 64 0
-13 1 10 63 -64 0
-13 1 10 -63 65 0
-13 1 10 -63 -65 0
14 1 4 66 67 0
14 1 4 66 -67 0
14 1 4 -66 68 0
14 1 4 -66 -68 0
5 -11 16 69 70 0
5 -11 16 69 -70 0
5 -11 16 -69 71 0
5 -11 16 -69 -71 0
-6 8 13 72 73 0
-6 8 13 72 -73 0
-6 8 13 -72 74 0
-6 8 13 -72 -74 0
-13 -7 19 75 76 0
-13 -7 19 75 -76 0
-13 -7 19 -75 77 0
-13 -7 19 -75 -77 0
4 20 -10 78 79 0
4 20 -10 78 -79 0
4 20 -10 -78 80 0
4 20 -10 -78 -80 0
-15 -6 -16 81 82 0
-15 -6 -16 81 -82 0
-15 -6 -16 -81 83 0
-15 -6 -16 -81 -83 0
1 2 -13 84 85 0
1 2 -13 84 -85 0
1 2 -13 -84 86 0
1 2 -13 -84 -86 0
-6 8 16 87 88 0
-6 8 16 87 -88 0
-6 8 16 -87 89 0
-6 8 16 -87 -89 0
-4 -16 7 90 91 0
-4 -16 7 90 -91 0
-4 -16 7 -90 92 0
-4 -16 7 -90 -92 0
-19 -15 17 93 94 0
-19 -15 17 93 -94 0
-19 -15 17 -93 95 0
-19 -15 17 -93 -95 0
15 -5 4 96 97 0
15 -5 4 96 -97 0
15 -5 4 -96 98 0
15 -5 4 -96 -98 0
10 -19 14 99 100 0
10 -19 14 99 -100 0
10 -19 14 -99 101 0
10 -19 14 -99 -101 0
-16 -7 12 102 103 0
-16 -7 12 102 -103 0
-16 -7 12 -102 104 0
-16 -7 12 -102 -104 0
20 -1 -17 105 106 0
20 -1 -17 105 -106 0
20 -1 -17 -105 107 0
20 -1 -17 -105 -107 0
14 -13 7 108 109 0
14 -13 7 108 -109 0
14 -13 7 -108 110 0
14 -13 7 -108 -110 0
19 -7 11 111 112 0
19 -7 11 111 -112 0
19 -7 11 -111 113 0
19 -7 11 -111 -113 0
-3 -6 5 114 115 0
-3 -6 5 114 -115 0
-3 -6 5 -114 116 0
-3 -6 5 -114 -116 0
2 11 -14 117 118 0
2 11 -14 117 -118 0
2 11 -14 -117 119 0
2 11 -14 -117 -119 0
2 8 12 120 121 0
2 8 12 120 -121 0
2 8 12 -120 122 0
2 8 12 -120 -122 0
-3 15 -10 123 124 0
-3 15 -10 123 -124 0
-3 15 -10 -123 125 0
-3 15 -10 -123 -125 0
-11 13 -5 126 127 0
-11 13 -5 126 -127 0
-11 13 -5 -126 128 0
-11 13 -5 -126 -128 0
15 14 -17 129 130 0
15 14 -17 129 -130 0
15 14 -17 -129 131 0
15 14 -17 -129 -131 0
11 19 -10 132 133 0
11 19 -10 132 -133 0
11 19 -10 -132 134 0
11 19 -10 -132 -134 0
19 -3 4 135 136 0
19 -3 4 135 -136 0
19 -3 4 -135 137 0
19 -3 4 -135 -137 0
13 14 1 138 139 0
13 14 1 138 -139 0
13 14 1 -138 140 0
13 14 1 -138 -140 0
17 16 20 141 142 0
17 16 20 141 -142 0
17 16 20 -141 143 0
17 16 20 -141 -143 0
13 -3 2 144 145 0
13 -3 2 144 -145 0
13 -3 2 -144 146 0
13 -3 2 -144 -146 0
9 3 -19 147 148 0
9 3 -19 147 -148 0
9 3 -19 -147 149 0
9 3 -19 -147 -149 0
-6 13 20 150 151 0
-6 13 20 150 -151 0
-6 13 20 -150 152 0
-6 13 20 -150 -152 0
-9 18 -5 153 154 0
-9 18 -5 153 -154 0
-9 18 -5 -153 155 0
-9 18 -5 -153 -155 0
7 20 -11 156 157 0
7 20 -11 156 -157 0
7 20 -11 -156 158 0
7 20 -11 -156 -158 0
1 10 20 159 160 0
1 10 20 159 -160 0
1 10 20 -159 161 0
1 10 20 -159 -161 0
-18 -4 19 162 163 0
-18 -4 19 162 -163 0
-18 -4 19 -162 164 0
-18 -4 19 -162 -164 0
11 -16 20 165 166 0
11 -16 20 165 -166 0
11 -16 20 -165 167 0
11 -16 20 -165 -167 0
-14 20 2 168 169 0
-14 20 2 168 -169 0
-14 20 2 -168 170 0
-14 20 2 -168 -170 0
11 17 -5 171 172 0
11 17 -5 171 -172 0
11 17 -5 -171 173 0
11 17 -5 -171 -173 0
-20 -5 1 174 175 0
-20 -5 1 174 -175 0
-20 -5 1 -174 176 0
-20 -5 1 -174 -176 0
10 -6 -8 177 178 0
10 -6 -8 177 -178 0
10 -6 -8 -177 179 0
10 -6 -8 -177 -179 0
16 12 -15 180 181 0
16 12 -15 180 -181 0
16 12 -15 -180 182 0
16 12 -15 -180 -182 0
-19 -2 20 183 184 0
-19 -2 20 183 -184 0
-19 -2 20 -183 185 0
-19 -2 20 -183 -185 0
-8 9 -12 186 187 0
-8 9 -12 186 -187 0
-8 9 -12 -186 188 0
-8 9 -12 -186 -188 0
1 -8 -9 189 190 0
1 -8 -9 189 -190 0
1 -8 -9 -189 191 0
1 -8 -9 -189 -191 0
-8 -4 -3 192 193 0
-8 -4 -3 192 -193 0
-8 -4 -3 -192 194 0
-8 -4 -3 -192 -194 0
-14 4 -17 195 196 0
-14 4 -17 195 -196 0
-14 4 -17 -195 197 0
-14 4 -17 -195 -197 0
-12 20 -10 198 199 0
-12 20 -10 198 -199 0
-12 20 -10 -198 200 0
-12 20 -10 -198 -200 0
4 17 10 201 202 0
4 17 10 201 -202 0
4 17 10 -201 203 0
4 17 10 -201 -203 0
4 13 -14 204 205 0
4 13 -14 204 -205 0
4 13 -14 -204 206 0
4 13 -14 -204 -206 0
-14 -13 -15 207 208 0
-14 -13 -15 207 -208 0
-14 -13 -15 -207 209 0
-14 -13 -15 -207 -209 0
11 -5 -18 210 211 0
11 -5 -18 210 -211 0
11 -5 -18 -210 212 0
11 -5 -18 -210 -212 0
-6 7 20 213 214 0
-6 7 20 213 -214 0
-6 7 20 -213 215 0
-6 7 20 -213 -215 0
13 6 4 216 217 0
13 6 4 216 -217 0
13 6 4 -216 218 0
13 6 4 -216 -218 0
-6 -14 20 219 220 0
-6 -14 20 219 -220 0
-6 -14 20 -219 221 0
-6 -14 20 -219 -221 0
11 13 -2 222 223 0
11 13 -2 222 -223 0
11 13 -2 -222 224 0
11 13 -2 -222 -224 0
20 -18 -17 225 226 0
20 -18 -17 225 -226 0
20 -18 -17 -225 227 0
20 -18 -17 -225 -227 0
12 1 17 228 229 0
12 1 17 228 -229 0
12 1 17 -228 230 0
12 1 17 -228 -230 0
-19 -9 -8 231 232 0
-19 -9 -8 231 -232 0
-19 -9 -8 -231 233 0
-19 -9 -8 -231 -233 0
6 -12 16 234 235 0
6 -12 16 234 -235 0
6 -12 16 -234 236 0
6 -12 16 -234 -236 0
16 -4 -6 237 238 0
16 -4 -6 237 -238 0
16 -4 -6 -237 239 0
16 -4 -6 -237 -239 0
-1 -13 17 240 241 0
-1 -13 17 240 -241 0
-1 -13 17 -240 242 0
-1 -13 17 -240 -242 0
-14 -11 -10 243 244 0
-14 -11 -10 243 -244 0
-14 -11 -10 -243 245 0
-14 -11 -10 -243 -245 0
15 -16 -1 246 247 0
15 -16 -1 246 -247 0
15 -16 -1 -246 248 0
15 -16 -1 -246 -248 0
-19 2 10 249 250 0
-19 2 10 249 -250 0
-19 2 10 -249 251 0
-19 2 10 -249 -251 0
18 2 -5 252 253 0
18 2 -5 252 -253 0
18 2 -5 -252 254 0
18 2 -5 -252 -254 0
-3 4 10 255 256 0
-3 4 10 255 -256 0
-3 4 10 -255 257 0
-3 4 10 -255 -257 0
-8 14 -20 258 259 0
-8 14 -20 258 -259 0
-8 14 -20 -258 260 0
-8 14 -20 -258 -260 0
10 19 13 261 262 0
10 19 13 261 -262 0
10 19 13 -261 263 0
10 19 13 -261 -263 0
-9 -20 -10 264 265 0
-9 -20 -10 264 -265 0
-9 -20 -10 -264 266 0
-9 -20 -10 -264 -266 0
19 -11 18 267 268 0
19 -11 18 267 -268 0
19 -11 18 -267 269 0
19 -11 18 -267 -269 0
20 -17 4 270 271 0
20 -17 4 270 -271 0
20 -17 4 -270 272 0
20 -17 4 -270 -272 0
-19 -3 18 273 274 0
-19 -3 18 273 -274 0
-19 -3 18 -273 275 0
-19 -3 18 -273 -275 0
15 -10 1 276 277 0
15 -10 1 276 -277 0
15 -10 1 -276 278 0
15 -10 1 -276 -278 0
16 8 -2 279 280 0
16 8 -2 279 -280 0
16 8 -2 -279 281 0
16 8 -2 -279 -281 0
-1 4 6 282 283 0
-1 4 6 282 -283 0
-1 4 6 -282 284 0
-1 4 6 -282 -284 0
19 -7 -17 285 286 0
19 -7 -17 285 -286 0
19 -7 -17 -285 287 0
19 -7 -17 -285 -287 0
6 -15 -14 288 289 0
6 -15 -14 288 -289 0
6 -15 -14 -288 290 0
6 -15 -14 -288 -290 0
5 -8 3 291 292 0
5 -8 3 291 -292 0
5 -8 3 -291 293 0
5 -8 3 -291 -293 0
294 295 297 301 309 0
294 295 297 301 -309 0
294 295 297 -301 310 0
294 295 297 -301 -310 0
294 295 -297 302 311 0
294 295 -297 302 -311 0
294 295 -297 -302 312 0
294 295 -297 -302 -312 0
294 -295 298 303 313 0
294 -295 298 303 -313 0
294 -295 298 -303 314 0
294 -295 298 -303 -314 0
294 -295 -298 304 315 0
294 -295 -298 304 -315 0
294 -295 -298 -304 316 0
294 -295 -298 -304 -316 0
-294 296 299 305 317 0
-294 296 299 305 -317 0
-294 296 299 -305 318 0
-294 296 299 -305 -318 0
-294 296 -299 306 319 0
-294 296 -299 306 -319 0
-294 296 -299 -306 320 0
-294 296 -299 -306 -320 0
-294 -296 300 307 321 0
-294 -296 300 307 -321 0
-294 -296 300 -307 322 0
-294 -296 300 -307 -322 0
-294 -296 -300 308 323 0
-294 -296 -300 308 -323 0
-294 -296 -300 -308 324 0
-294 -296 -300 -308 -324 0
325 326 328 332 340 0
325 326 328 332 -340 0
325 326 328 -332 341 0
325 326 328 -332 -341 0
325 326 -328 333 342 0
325 326 -328 333 -342 0
325 326 -328 -333 343 0
325 326 -328 -333 -343 0
325 -326 329 334 344 0
325 -326 329 334 -344 0
325 -326 329 -334 345 0
325 -326 329 -334 -345 0
325 -326 -329 335 346 0
325 -326 -329 335 -346 0
325 -326 -329 -335 347 0
325 -326 -329 -335 -347 0
-325 327 330 336 348 0
-325 327 330 336 -348 0
-325 327 330 -336 349 0
-325 327 330 -336 -349 0
-325 327 -330 337 350 0
-325 327 -330 337 -350 0
-325 327 -330 -337 351 0
-325 327 -330 -337 -351 0
-325 -327 331 338 352 0
-325 -327 331 338 -352 0
-325 -327 331 -338 353 0
-325 -327 331 -338 -353 0
-325 -327 -331 339 354 0
-325 -327 -331 339 -354 0
-325 -327 -331 -339 355 0
-325 -327 -331 -339 -355 0
356 357 359 363 371 0
356 357 359 363 -371 0
356 357 359 -363 372 0
356 357 359 -363 -372 0
356 357 -359 364 373 0
356 357 -359 364 -373 0
356 357 -359 -364 374 0
356 357 -359 -364 -374 0
356 -357 360 365 375 0
356 -357 360 365 -375 0
356 -357 360 -365 376 0
356 -357 360 -365 -376 0
356 -357 -360 366 377 0
356 -357 -360 366 -377 0
356 -357 -360 -366 378 0
356 -357 -360 -366 -378 0
-356 358 361 367 379 0
-356 358 361 367 -379 0
-356 358 361 -367 380 0
-356 358 361 -367 -380 0
-356 358 -361 368 381 0
-356 358 -361 368 -381 0
-356 358 -361 -368 382 0
-356 358 -361 -368 -382 0
-356 -358 362 369 383 0
-356 -358 362 369 -383 0
-356 -358 362 -369 384 0
-356 -358 362 -369 -384 0
-356 -358 -362 370 385 0
-356 -358 -362 370 -385 0
-356 -358 -362 -370 386 0
-356 -358 -362 -370 -386 0

